p tw 129 143
1 2
2 3
11 12
101 102
102 103
103 104
104 105
105 106
105 111
106 107
106 122
107 108
108 109
109 110
109 116
110 122
12 13
12 21
111 112
112 113
112 122
113 114
114 115
115 116
115 122
116 117
117 118
118 119
119 120
120 121
13 14
121 128
122 123
123 124
124 125
125 126
126 127
127 128
128 129
14 15
15 16
16 17
17 18
17 21
18 19
19 20
20 128
3 4
21 22
22 23
23 24
23 33
24 25
25 26
26 27
27 28
28 29
29 30
30 31
4 5
31 32
32 33
32 39
33 34
34 35
35 36
36 37
37 38
38 128
39 40
40 41
5 6
41 42
42 43
43 44
44 45
45 46
45 67
46 47
47 48
48 49
48 68
49 50
50 51
6 11
6 7
51 52
51 53
52 53
53 54
54 55
55 56
56 57
57 58
57 64
58 59
59 60
60 61
7 8
61 62
61 64
62 63
63 101
64 65
65 66
66 67
68 69
69 70
69 73
70 71
8 9
71 72
72 128
73 74
74 75
75 76
76 77
77 78
78 79
79 80
80 81
9 10
81 82
82 83
83 84
84 85
85 86
86 87
87 88
88 89
89 90
90 91
10 11
91 92
92 93
93 94
94 95
95 96
96 97
97 98
98 99
99 100
100 101
